/*********************************************
 * OPL 12.4 Data
 * Author: jrivera6
 * Creation Date: 25/08/2021 at 7:18:46
 *********************************************/

n = 20;
 
m = 3;
 
P = [109
114
118
130
137
124
117
102
128
141
102
125
149
149
141
132
146
149
104
132];